\ Model project
\ LP format - for model browsing. Use MPS format to capture full model detail.
Maximize
  - 120 x[0,0] - 120 x[0,1] - 120 x[0,2] - 120 x[0,3] - 120 x[0,4]
   - 120 x[0,5] - 120 x[0,6] - 270 x[1,0] - 270 x[1,1] - 270 x[1,2]
   - 270 x[1,3] - 270 x[1,4] - 270 x[1,5] - 270 x[1,6] - 82.5 x[2,0]
   - 82.5 x[2,1] - 82.5 x[2,2] - 82.5 x[2,3] - 82.5 x[2,4] - 82.5 x[2,5]
   - 82.5 x[2,6] - 120 x[3,0] - 120 x[3,1] - 120 x[3,2] - 120 x[3,3]
   - 120 x[3,4] - 120 x[3,5] - 120 x[3,6] - 225 x[4,0] - 225 x[4,1]
   - 225 x[4,2] - 225 x[4,3] - 225 x[4,4] - 225 x[4,5] - 225 x[4,6]
   - 240 x[5,0] - 240 x[5,1] - 240 x[5,2] - 240 x[5,3] - 240 x[5,4]
   - 240 x[5,5] - 240 x[5,6] - 15 x[6,0] - 15 x[6,1] - 15 x[6,2]
   - 15 x[6,3] - 15 x[6,4] - 15 x[6,5] - 15 x[6,6] - 75 x[7,0] - 75 x[7,1]
   - 75 x[7,2] - 75 x[7,3] - 75 x[7,4] - 75 x[7,5] - 75 x[7,6] - 75 x[8,0]
   - 75 x[8,1] - 75 x[8,2] - 75 x[8,3] - 75 x[8,4] - 75 x[8,5] - 75 x[8,6]
   - 150 x[9,0] - 150 x[9,1] - 150 x[9,2] - 150 x[9,3] - 150 x[9,4]
   - 150 x[9,5] - 150 x[9,6] - 150 x[10,0] - 150 x[10,1] - 150 x[10,2]
   - 150 x[10,3] - 150 x[10,4] - 150 x[10,5] - 150 x[10,6] - 75 x[11,0]
   - 75 x[11,1] - 75 x[11,2] - 75 x[11,3] - 75 x[11,4] - 75 x[11,5]
   - 75 x[11,6] - 75 x[12,0] - 75 x[12,1] - 75 x[12,2] - 75 x[12,3]
   - 75 x[12,4] - 75 x[12,5] - 75 x[12,6] - 90 x[13,0] - 90 x[13,1]
   - 90 x[13,2] - 90 x[13,3] - 90 x[13,4] - 90 x[13,5] - 90 x[13,6]
   - 75 x[14,0] - 75 x[14,1] - 75 x[14,2] - 75 x[14,3] - 75 x[14,4]
   - 75 x[14,5] - 75 x[14,6] - 150 x[15,0] - 150 x[15,1] - 150 x[15,2]
   - 150 x[15,3] - 150 x[15,4] - 150 x[15,5] - 150 x[15,6] - 37.5 x[16,0]
   - 37.5 x[16,1] - 37.5 x[16,2] - 37.5 x[16,3] - 37.5 x[16,4]
   - 37.5 x[16,5] - 37.5 x[16,6] - 30 x[17,0] - 30 x[17,1] - 30 x[17,2]
   - 30 x[17,3] - 30 x[17,4] - 30 x[17,5] - 30 x[17,6] - 300 x[18,0]
   - 300 x[18,1] - 300 x[18,2] - 300 x[18,3] - 300 x[18,4] - 300 x[18,5]
   - 300 x[18,6] - 150 x[19,0] - 150 x[19,1] - 150 x[19,2] - 150 x[19,3]
   - 150 x[19,4] - 150 x[19,5] - 150 x[19,6] - 75 x[20,0] - 75 x[20,1]
   - 75 x[20,2] - 75 x[20,3] - 75 x[20,4] - 75 x[20,5] - 75 x[20,6]
   - 90 x[21,0] - 90 x[21,1] - 90 x[21,2] - 90 x[21,3] - 90 x[21,4]
   - 90 x[21,5] - 90 x[21,6] - 150 x[22,0] - 150 x[22,1] - 150 x[22,2]
   - 150 x[22,3] - 150 x[22,4] - 150 x[22,5] - 150 x[22,6] - 75 x[23,0]
   - 75 x[23,1] - 75 x[23,2] - 75 x[23,3] - 75 x[23,4] - 75 x[23,5]
   - 75 x[23,6] - 150 x[24,0] - 150 x[24,1] - 150 x[24,2] - 150 x[24,3]
   - 150 x[24,4] - 150 x[24,5] - 150 x[24,6] - 22.5 x[25,0] - 22.5 x[25,1]
   - 22.5 x[25,2] - 22.5 x[25,3] - 22.5 x[25,4] - 22.5 x[25,5]
   - 22.5 x[25,6] - 97.5 x[26,0] - 97.5 x[26,1] - 97.5 x[26,2]
   - 97.5 x[26,3] - 97.5 x[26,4] - 97.5 x[26,5] - 97.5 x[26,6]
   - 100 x[27,0] - 100 x[27,1] - 100 x[27,2] - 100 x[27,3] - 100 x[27,4]
   - 100 x[27,5] - 100 x[27,6] - 45 x[28,0] - 45 x[28,1] - 45 x[28,2]
   - 45 x[28,3] - 45 x[28,4] - 45 x[28,5] - 45 x[28,6] - 15 x[29,0]
   - 15 x[29,1] - 15 x[29,2] - 15 x[29,3] - 15 x[29,4] - 15 x[29,5]
   - 15 x[29,6] - 135 x[30,0] - 135 x[30,1] - 135 x[30,2] - 135 x[30,3]
   - 135 x[30,4] - 135 x[30,5] - 135 x[30,6] + 346.8 y[0,0] + 346.8 y[0,1]
   + 346.8 y[0,2] + 346.8 y[0,3] + 346.8 y[0,4] + 346.8 y[0,5]
   + 346.8 y[0,6] + 606 y[1,0] + 606 y[1,1] + 606 y[1,2] + 606 y[1,3]
   + 606 y[1,4] + 606 y[1,5] + 606 y[1,6] + 399 y[2,0] + 399 y[2,1]
   + 399 y[2,2] + 399 y[2,3] + 399 y[2,4] + 399 y[2,5] + 399 y[2,6]
   + 279 y[3,0] + 279 y[3,1] + 279 y[3,2] + 279 y[3,3] + 279 y[3,4]
   + 279 y[3,5] + 279 y[3,6] + 511 y[4,0] + 511 y[4,1] + 511 y[4,2]
   + 511 y[4,3] + 511 y[4,4] + 511 y[4,5] + 511 y[4,6] + 408.5 y[5,0]
   + 408.5 y[5,1] + 408.5 y[5,2] + 408.5 y[5,3] + 408.5 y[5,4]
   + 408.5 y[5,5] + 408.5 y[5,6] + 110.05 y[6,0] + 110.05 y[6,1]
   + 110.05 y[6,2] + 110.05 y[6,3] + 110.05 y[6,4] + 110.05 y[6,5]
   + 110.05 y[6,6] + 115.15 y[7,0] + 115.15 y[7,1] + 115.15 y[7,2]
   + 115.15 y[7,3] + 115.15 y[7,4] + 115.15 y[7,5] + 115.15 y[7,6]
   + 235.15 y[8,0] + 235.15 y[8,1] + 235.15 y[8,2] + 235.15 y[8,3]
   + 235.15 y[8,4] + 235.15 y[8,5] + 235.15 y[8,6] + 335.15 y[9,0]
   + 335.15 y[9,1] + 335.15 y[9,2] + 335.15 y[9,3] + 335.15 y[9,4]
   + 335.15 y[9,5] + 335.15 y[9,6] + 435.15 y[10,0] + 435.15 y[10,1]
   + 435.15 y[10,2] + 435.15 y[10,3] + 435.15 y[10,4] + 435.15 y[10,5]
   + 435.15 y[10,6] + 299 y[11,0] + 299 y[11,1] + 299 y[11,2] + 299 y[11,3]
   + 299 y[11,4] + 299 y[11,5] + 299 y[11,6] + 335.15 y[12,0]
   + 335.15 y[12,1] + 335.15 y[12,2] + 335.15 y[12,3] + 335.15 y[12,4]
   + 335.15 y[12,5] + 335.15 y[12,6] + 331.15 y[13,0] + 331.15 y[13,1]
   + 331.15 y[13,2] + 331.15 y[13,3] + 331.15 y[13,4] + 331.15 y[13,5]
   + 331.15 y[13,6] + 295 y[14,0] + 295 y[14,1] + 295 y[14,2] + 295 y[14,3]
   + 295 y[14,4] + 295 y[14,5] + 295 y[14,6] + 399 y[15,0] + 399 y[15,1]
   + 399 y[15,2] + 399 y[15,3] + 399 y[15,4] + 399 y[15,5] + 399 y[15,6]
   + 94.7 y[16,0] + 94.7 y[16,1] + 94.7 y[16,2] + 94.7 y[16,3]
   + 94.7 y[16,4] + 94.7 y[16,5] + 94.7 y[16,6] + 107.1 y[17,0]
   + 107.1 y[17,1] + 107.1 y[17,2] + 107.1 y[17,3] + 107.1 y[17,4]
   + 107.1 y[17,5] + 107.1 y[17,6] + 730.1 y[18,0] + 730.1 y[18,1]
   + 730.1 y[18,2] + 730.1 y[18,3] + 730.1 y[18,4] + 730.1 y[18,5]
   + 730.1 y[18,6] + 130.1 y[19,0] + 130.1 y[19,1] + 130.1 y[19,2]
   + 130.1 y[19,3] + 130.1 y[19,4] + 130.1 y[19,5] + 130.1 y[19,6]
   + 235.15 y[20,0] + 235.15 y[20,1] + 235.15 y[20,2] + 235.15 y[20,3]
   + 235.15 y[20,4] + 235.15 y[20,5] + 235.15 y[20,6] + 100.65 y[21,0]
   + 100.65 y[21,1] + 100.65 y[21,2] + 100.65 y[21,3] + 100.65 y[21,4]
   + 100.65 y[21,5] + 100.65 y[21,6] + 431.15 y[22,0] + 431.15 y[22,1]
   + 431.15 y[22,2] + 431.15 y[22,3] + 431.15 y[22,4] + 431.15 y[22,5]
   + 431.15 y[22,6] + 235.15 y[23,0] + 235.15 y[23,1] + 235.15 y[23,2]
   + 235.15 y[23,3] + 235.15 y[23,4] + 235.15 y[23,5] + 235.15 y[23,6]
   + 431.15 y[24,0] + 431.15 y[24,1] + 431.15 y[24,2] + 431.15 y[24,3]
   + 431.15 y[24,4] + 431.15 y[24,5] + 431.15 y[24,6] + 129 y[25,0]
   + 129 y[25,1] + 129 y[25,2] + 129 y[25,3] + 129 y[25,4] + 129 y[25,5]
   + 129 y[25,6] + 595 y[26,0] + 595 y[26,1] + 595 y[26,2] + 595 y[26,3]
   + 595 y[26,4] + 595 y[26,5] + 595 y[26,6] + 295 y[27,0] + 295 y[27,1]
   + 295 y[27,2] + 295 y[27,3] + 295 y[27,4] + 295 y[27,5] + 295 y[27,6]
   + 65.15 y[28,0] + 65.15 y[28,1] + 65.15 y[28,2] + 65.15 y[28,3]
   + 65.15 y[28,4] + 65.15 y[28,5] + 65.15 y[28,6] + 129 y[29,0]
   + 129 y[29,1] + 129 y[29,2] + 129 y[29,3] + 129 y[29,4] + 129 y[29,5]
   + 129 y[29,6] + 268 y[30,0] + 268 y[30,1] + 268 y[30,2] + 268 y[30,3]
   + 268 y[30,4] + 268 y[30,5] + 268 y[30,6]
Subject To
 R0: - 2 x[0,0] + y[0,0] <= 0
 R1: - 2 x[0,1] + y[0,1] <= 0
 R2: - 2 x[0,2] + y[0,2] <= 0
 R3: - 2 x[0,3] + y[0,3] <= 0
 R4: - 2 x[0,4] + y[0,4] <= 0
 R5: - 2 x[0,5] + y[0,5] <= 0
 R6: - 2 x[0,6] + y[0,6] <= 0
 R7: - 6 x[1,0] + y[1,0] <= 0
 R8: - 6 x[1,1] + y[1,1] <= 0
 R9: - 6 x[1,2] + y[1,2] <= 0
 R10: - 6 x[1,3] + y[1,3] <= 0
 R11: - 6 x[1,4] + y[1,4] <= 0
 R12: - 6 x[1,5] + y[1,5] <= 0
 R13: - 6 x[1,6] + y[1,6] <= 0
 R14: - 6 x[2,0] + y[2,0] <= 0
 R15: - 6 x[2,1] + y[2,1] <= 0
 R16: - 6 x[2,2] + y[2,2] <= 0
 R17: - 6 x[2,3] + y[2,3] <= 0
 R18: - 6 x[2,4] + y[2,4] <= 0
 R19: - 6 x[2,5] + y[2,5] <= 0
 R20: - 6 x[2,6] + y[2,6] <= 0
 R21: - 4 x[3,0] + y[3,0] <= 0
 R22: - 4 x[3,1] + y[3,1] <= 0
 R23: - 4 x[3,2] + y[3,2] <= 0
 R24: - 4 x[3,3] + y[3,3] <= 0
 R25: - 4 x[3,4] + y[3,4] <= 0
 R26: - 4 x[3,5] + y[3,5] <= 0
 R27: - 4 x[3,6] + y[3,6] <= 0
 R28: - 6 x[4,0] + y[4,0] <= 0
 R29: - 6 x[4,1] + y[4,1] <= 0
 R30: - 6 x[4,2] + y[4,2] <= 0
 R31: - 6 x[4,3] + y[4,3] <= 0
 R32: - 6 x[4,4] + y[4,4] <= 0
 R33: - 6 x[4,5] + y[4,5] <= 0
 R34: - 6 x[4,6] + y[4,6] <= 0
 R35: - 4 x[5,0] + y[5,0] <= 0
 R36: - 4 x[5,1] + y[5,1] <= 0
 R37: - 4 x[5,2] + y[5,2] <= 0
 R38: - 4 x[5,3] + y[5,3] <= 0
 R39: - 4 x[5,4] + y[5,4] <= 0
 R40: - 4 x[5,5] + y[5,5] <= 0
 R41: - 4 x[5,6] + y[5,6] <= 0
 R42: - 6 x[6,0] + y[6,0] <= 0
 R43: - 6 x[6,1] + y[6,1] <= 0
 R44: - 6 x[6,2] + y[6,2] <= 0
 R45: - 6 x[6,3] + y[6,3] <= 0
 R46: - 6 x[6,4] + y[6,4] <= 0
 R47: - 6 x[6,5] + y[6,5] <= 0
 R48: - 6 x[6,6] + y[6,6] <= 0
 R49: - 6 x[7,0] + y[7,0] <= 0
 R50: - 6 x[7,1] + y[7,1] <= 0
 R51: - 6 x[7,2] + y[7,2] <= 0
 R52: - 6 x[7,3] + y[7,3] <= 0
 R53: - 6 x[7,4] + y[7,4] <= 0
 R54: - 6 x[7,5] + y[7,5] <= 0
 R55: - 6 x[7,6] + y[7,6] <= 0
 R56: - 6 x[8,0] + y[8,0] <= 0
 R57: - 6 x[8,1] + y[8,1] <= 0
 R58: - 6 x[8,2] + y[8,2] <= 0
 R59: - 6 x[8,3] + y[8,3] <= 0
 R60: - 6 x[8,4] + y[8,4] <= 0
 R61: - 6 x[8,5] + y[8,5] <= 0
 R62: - 6 x[8,6] + y[8,6] <= 0
 R63: - 6 x[9,0] + y[9,0] <= 0
 R64: - 6 x[9,1] + y[9,1] <= 0
 R65: - 6 x[9,2] + y[9,2] <= 0
 R66: - 6 x[9,3] + y[9,3] <= 0
 R67: - 6 x[9,4] + y[9,4] <= 0
 R68: - 6 x[9,5] + y[9,5] <= 0
 R69: - 6 x[9,6] + y[9,6] <= 0
 R70: - 6 x[10,0] + y[10,0] <= 0
 R71: - 6 x[10,1] + y[10,1] <= 0
 R72: - 6 x[10,2] + y[10,2] <= 0
 R73: - 6 x[10,3] + y[10,3] <= 0
 R74: - 6 x[10,4] + y[10,4] <= 0
 R75: - 6 x[10,5] + y[10,5] <= 0
 R76: - 6 x[10,6] + y[10,6] <= 0
 R77: - 2 x[11,0] + y[11,0] <= 0
 R78: - 2 x[11,1] + y[11,1] <= 0
 R79: - 2 x[11,2] + y[11,2] <= 0
 R80: - 2 x[11,3] + y[11,3] <= 0
 R81: - 2 x[11,4] + y[11,4] <= 0
 R82: - 2 x[11,5] + y[11,5] <= 0
 R83: - 2 x[11,6] + y[11,6] <= 0
 R84: - 2 x[12,0] + y[12,0] <= 0
 R85: - 2 x[12,1] + y[12,1] <= 0
 R86: - 2 x[12,2] + y[12,2] <= 0
 R87: - 2 x[12,3] + y[12,3] <= 0
 R88: - 2 x[12,4] + y[12,4] <= 0
 R89: - 2 x[12,5] + y[12,5] <= 0
 R90: - 2 x[12,6] + y[12,6] <= 0
 R91: - 6 x[13,0] + y[13,0] <= 0
 R92: - 6 x[13,1] + y[13,1] <= 0
 R93: - 6 x[13,2] + y[13,2] <= 0
 R94: - 6 x[13,3] + y[13,3] <= 0
 R95: - 6 x[13,4] + y[13,4] <= 0
 R96: - 6 x[13,5] + y[13,5] <= 0
 R97: - 6 x[13,6] + y[13,6] <= 0
 R98: - 6 x[14,0] + y[14,0] <= 0
 R99: - 6 x[14,1] + y[14,1] <= 0
 R100: - 6 x[14,2] + y[14,2] <= 0
 R101: - 6 x[14,3] + y[14,3] <= 0
 R102: - 6 x[14,4] + y[14,4] <= 0
 R103: - 6 x[14,5] + y[14,5] <= 0
 R104: - 6 x[14,6] + y[14,6] <= 0
 R105: - 4 x[15,0] + y[15,0] <= 0
 R106: - 4 x[15,1] + y[15,1] <= 0
 R107: - 4 x[15,2] + y[15,2] <= 0
 R108: - 4 x[15,3] + y[15,3] <= 0
 R109: - 4 x[15,4] + y[15,4] <= 0
 R110: - 4 x[15,5] + y[15,5] <= 0
 R111: - 4 x[15,6] + y[15,6] <= 0
 R112: - 10 x[16,0] + y[16,0] <= 0
 R113: - 10 x[16,1] + y[16,1] <= 0
 R114: - 10 x[16,2] + y[16,2] <= 0
 R115: - 10 x[16,3] + y[16,3] <= 0
 R116: - 10 x[16,4] + y[16,4] <= 0
 R117: - 10 x[16,5] + y[16,5] <= 0
 R118: - 10 x[16,6] + y[16,6] <= 0
 R119: - 6 x[17,0] + y[17,0] <= 0
 R120: - 6 x[17,1] + y[17,1] <= 0
 R121: - 6 x[17,2] + y[17,2] <= 0
 R122: - 6 x[17,3] + y[17,3] <= 0
 R123: - 6 x[17,4] + y[17,4] <= 0
 R124: - 6 x[17,5] + y[17,5] <= 0
 R125: - 6 x[17,6] + y[17,6] <= 0
 R126: - 2 x[18,0] + y[18,0] <= 0
 R127: - 2 x[18,1] + y[18,1] <= 0
 R128: - 2 x[18,2] + y[18,2] <= 0
 R129: - 2 x[18,3] + y[18,3] <= 0
 R130: - 2 x[18,4] + y[18,4] <= 0
 R131: - 2 x[18,5] + y[18,5] <= 0
 R132: - 2 x[18,6] + y[18,6] <= 0
 R133: - 6 x[19,0] + y[19,0] <= 0
 R134: - 6 x[19,1] + y[19,1] <= 0
 R135: - 6 x[19,2] + y[19,2] <= 0
 R136: - 6 x[19,3] + y[19,3] <= 0
 R137: - 6 x[19,4] + y[19,4] <= 0
 R138: - 6 x[19,5] + y[19,5] <= 0
 R139: - 6 x[19,6] + y[19,6] <= 0
 R140: - 6 x[20,0] + y[20,0] <= 0
 R141: - 6 x[20,1] + y[20,1] <= 0
 R142: - 6 x[20,2] + y[20,2] <= 0
 R143: - 6 x[20,3] + y[20,3] <= 0
 R144: - 6 x[20,4] + y[20,4] <= 0
 R145: - 6 x[20,5] + y[20,5] <= 0
 R146: - 6 x[20,6] + y[20,6] <= 0
 R147: - 6 x[21,0] + y[21,0] <= 0
 R148: - 6 x[21,1] + y[21,1] <= 0
 R149: - 6 x[21,2] + y[21,2] <= 0
 R150: - 6 x[21,3] + y[21,3] <= 0
 R151: - 6 x[21,4] + y[21,4] <= 0
 R152: - 6 x[21,5] + y[21,5] <= 0
 R153: - 6 x[21,6] + y[21,6] <= 0
 R154: - 4 x[22,0] + y[22,0] <= 0
 R155: - 4 x[22,1] + y[22,1] <= 0
 R156: - 4 x[22,2] + y[22,2] <= 0
 R157: - 4 x[22,3] + y[22,3] <= 0
 R158: - 4 x[22,4] + y[22,4] <= 0
 R159: - 4 x[22,5] + y[22,5] <= 0
 R160: - 4 x[22,6] + y[22,6] <= 0
 R161: - 6 x[23,0] + y[23,0] <= 0
 R162: - 6 x[23,1] + y[23,1] <= 0
 R163: - 6 x[23,2] + y[23,2] <= 0
 R164: - 6 x[23,3] + y[23,3] <= 0
 R165: - 6 x[23,4] + y[23,4] <= 0
 R166: - 6 x[23,5] + y[23,5] <= 0
 R167: - 6 x[23,6] + y[23,6] <= 0
 R168: - 6 x[24,0] + y[24,0] <= 0
 R169: - 6 x[24,1] + y[24,1] <= 0
 R170: - 6 x[24,2] + y[24,2] <= 0
 R171: - 6 x[24,3] + y[24,3] <= 0
 R172: - 6 x[24,4] + y[24,4] <= 0
 R173: - 6 x[24,5] + y[24,5] <= 0
 R174: - 6 x[24,6] + y[24,6] <= 0
 R175: - 10 x[25,0] + y[25,0] <= 0
 R176: - 10 x[25,1] + y[25,1] <= 0
 R177: - 10 x[25,2] + y[25,2] <= 0
 R178: - 10 x[25,3] + y[25,3] <= 0
 R179: - 10 x[25,4] + y[25,4] <= 0
 R180: - 10 x[25,5] + y[25,5] <= 0
 R181: - 10 x[25,6] + y[25,6] <= 0
 R182: - 4 x[26,0] + y[26,0] <= 0
 R183: - 4 x[26,1] + y[26,1] <= 0
 R184: - 4 x[26,2] + y[26,2] <= 0
 R185: - 4 x[26,3] + y[26,3] <= 0
 R186: - 4 x[26,4] + y[26,4] <= 0
 R187: - 4 x[26,5] + y[26,5] <= 0
 R188: - 4 x[26,6] + y[26,6] <= 0
 R189: - 6 x[27,0] + y[27,0] <= 0
 R190: - 6 x[27,1] + y[27,1] <= 0
 R191: - 6 x[27,2] + y[27,2] <= 0
 R192: - 6 x[27,3] + y[27,3] <= 0
 R193: - 6 x[27,4] + y[27,4] <= 0
 R194: - 6 x[27,5] + y[27,5] <= 0
 R195: - 6 x[27,6] + y[27,6] <= 0
 R196: - 6 x[28,0] + y[28,0] <= 0
 R197: - 6 x[28,1] + y[28,1] <= 0
 R198: - 6 x[28,2] + y[28,2] <= 0
 R199: - 6 x[28,3] + y[28,3] <= 0
 R200: - 6 x[28,4] + y[28,4] <= 0
 R201: - 6 x[28,5] + y[28,5] <= 0
 R202: - 6 x[28,6] + y[28,6] <= 0
 R203: - 10 x[29,0] + y[29,0] <= 0
 R204: - 10 x[29,1] + y[29,1] <= 0
 R205: - 10 x[29,2] + y[29,2] <= 0
 R206: - 10 x[29,3] + y[29,3] <= 0
 R207: - 10 x[29,4] + y[29,4] <= 0
 R208: - 10 x[29,5] + y[29,5] <= 0
 R209: - 10 x[29,6] + y[29,6] <= 0
 R210: - 6 x[30,0] + y[30,0] <= 0
 R211: - 6 x[30,1] + y[30,1] <= 0
 R212: - 6 x[30,2] + y[30,2] <= 0
 R213: - 6 x[30,3] + y[30,3] <= 0
 R214: - 6 x[30,4] + y[30,4] <= 0
 R215: - 6 x[30,5] + y[30,5] <= 0
 R216: - 6 x[30,6] + y[30,6] <= 0
 R217: y[0,0] >= 0
 R218: y[1,0] >= 0
 R219: y[2,0] >= 0
 R220: y[3,0] >= 0
 R221: y[4,0] >= 0
 R222: y[5,0] >= 0
 R223: y[6,0] >= 0
 R224: y[7,0] >= 0
 R225: y[8,0] >= 0
 R226: y[9,0] >= 0
 R227: y[10,0] >= 0
 R228: y[11,0] >= 0
 R229: y[12,0] >= 0
 R230: y[13,0] >= 0
 R231: y[14,0] >= 0
 R232: y[15,0] >= 0
 R233: y[16,0] >= 0
 R234: y[17,0] >= 0
 R235: y[18,0] >= 0
 R236: y[19,0] >= 0
 R237: y[20,0] >= 0
 R238: y[21,0] >= 0
 R239: y[22,0] >= 0
 R240: y[23,0] >= 0
 R241: y[24,0] >= 0
 R242: y[25,0] >= 0
 R243: y[26,0] >= 0
 R244: y[27,0] >= 0
 R245: y[28,0] >= 0
 R246: y[29,0] >= 0
 R247: y[30,0] >= 0
 R248: y[0,1] >= 0
 R249: y[1,1] >= 0
 R250: y[2,1] >= 0
 R251: y[3,1] >= 0
 R252: y[4,1] >= 0
 R253: y[5,1] >= 0
 R254: y[6,1] >= 0
 R255: y[7,1] >= 0
 R256: y[8,1] >= 0
 R257: y[9,1] >= 0
 R258: y[10,1] >= 0
 R259: y[11,1] >= 0
 R260: y[12,1] >= 0
 R261: y[13,1] >= 0
 R262: y[14,1] >= 0
 R263: y[15,1] >= 0
 R264: y[16,1] >= 0
 R265: y[17,1] >= 0
 R266: y[18,1] >= 0
 R267: y[19,1] >= 0
 R268: y[20,1] >= 0
 R269: y[21,1] >= 0
 R270: y[22,1] >= 0
 R271: y[23,1] >= 0
 R272: y[24,1] >= 0
 R273: y[25,1] >= 0
 R274: y[26,1] >= 0
 R275: y[27,1] >= 0
 R276: y[28,1] >= 0
 R277: y[29,1] >= 0
 R278: y[30,1] >= 0
 R279: y[0,2] >= 0
 R280: y[1,2] >= 0
 R281: y[2,2] >= 0
 R282: y[3,2] >= 0
 R283: y[4,2] >= 0
 R284: y[5,2] >= 0
 R285: y[6,2] >= 0
 R286: y[7,2] >= 0
 R287: y[8,2] >= 0
 R288: y[9,2] >= 0
 R289: y[10,2] >= 0
 R290: y[11,2] >= 0
 R291: y[12,2] >= 0
 R292: y[13,2] >= 0
 R293: y[14,2] >= 0
 R294: y[15,2] >= 0
 R295: y[16,2] >= 0
 R296: y[17,2] >= 0
 R297: y[18,2] >= 0
 R298: y[19,2] >= 0
 R299: y[20,2] >= 0
 R300: y[21,2] >= 0
 R301: y[22,2] >= 0
 R302: y[23,2] >= 0
 R303: y[24,2] >= 0
 R304: y[25,2] >= 0
 R305: y[26,2] >= 0
 R306: y[27,2] >= 0
 R307: y[28,2] >= 0
 R308: y[29,2] >= 0
 R309: y[30,2] >= 0
 R310: y[0,3] >= 0
 R311: y[1,3] >= 0
 R312: y[2,3] >= 0
 R313: y[3,3] >= 0
 R314: y[4,3] >= 0
 R315: y[5,3] >= 0
 R316: y[6,3] >= 0
 R317: y[7,3] >= 0
 R318: y[8,3] >= 0
 R319: y[9,3] >= 0
 R320: y[10,3] >= 0
 R321: y[11,3] >= 0
 R322: y[12,3] >= 0
 R323: y[13,3] >= 0
 R324: y[14,3] >= 0
 R325: y[15,3] >= 0
 R326: y[16,3] >= 0
 R327: y[17,3] >= 0
 R328: y[18,3] >= 0
 R329: y[19,3] >= 0
 R330: y[20,3] >= 0
 R331: y[21,3] >= 0
 R332: y[22,3] >= 0
 R333: y[23,3] >= 0
 R334: y[24,3] >= 0
 R335: y[25,3] >= 0
 R336: y[26,3] >= 0
 R337: y[27,3] >= 0
 R338: y[28,3] >= 0
 R339: y[29,3] >= 0
 R340: y[30,3] >= 0
 R341: y[0,4] >= 0
 R342: y[1,4] >= 0
 R343: y[2,4] >= 0
 R344: y[3,4] >= 0
 R345: y[4,4] >= 0
 R346: y[5,4] >= 0
 R347: y[6,4] >= 0
 R348: y[7,4] >= 0
 R349: y[8,4] >= 0
 R350: y[9,4] >= 0
 R351: y[10,4] >= 0
 R352: y[11,4] >= 0
 R353: y[12,4] >= 0
 R354: y[13,4] >= 0
 R355: y[14,4] >= 0
 R356: y[15,4] >= 0
 R357: y[16,4] >= 0
 R358: y[17,4] >= 0
 R359: y[18,4] >= 0
 R360: y[19,4] >= 0
 R361: y[20,4] >= 0
 R362: y[21,4] >= 0
 R363: y[22,4] >= 0
 R364: y[23,4] >= 0
 R365: y[24,4] >= 0
 R366: y[25,4] >= 0
 R367: y[26,4] >= 0
 R368: y[27,4] >= 0
 R369: y[28,4] >= 0
 R370: y[29,4] >= 0
 R371: y[30,4] >= 0
 R372: y[0,5] >= 0
 R373: y[1,5] >= 0
 R374: y[2,5] >= 0
 R375: y[3,5] >= 0
 R376: y[4,5] >= 0
 R377: y[5,5] >= 0
 R378: y[6,5] >= 0
 R379: y[7,5] >= 0
 R380: y[8,5] >= 0
 R381: y[9,5] >= 0
 R382: y[10,5] >= 0
 R383: y[11,5] >= 0
 R384: y[12,5] >= 0
 R385: y[13,5] >= 0
 R386: y[14,5] >= 0
 R387: y[15,5] >= 0
 R388: y[16,5] >= 0
 R389: y[17,5] >= 0
 R390: y[18,5] >= 0
 R391: y[19,5] >= 0
 R392: y[20,5] >= 0
 R393: y[21,5] >= 0
 R394: y[22,5] >= 0
 R395: y[23,5] >= 0
 R396: y[24,5] >= 0
 R397: y[25,5] >= 0
 R398: y[26,5] >= 0
 R399: y[27,5] >= 0
 R400: y[28,5] >= 0
 R401: y[29,5] >= 0
 R402: y[30,5] >= 0
 R403: y[0,6] >= 0
 R404: y[1,6] >= 0
 R405: y[2,6] >= 0
 R406: y[3,6] >= 0
 R407: y[4,6] >= 0
 R408: y[5,6] >= 0
 R409: y[6,6] >= 0
 R410: y[7,6] >= 0
 R411: y[8,6] >= 0
 R412: y[9,6] >= 0
 R413: y[10,6] >= 0
 R414: y[11,6] >= 0
 R415: y[12,6] >= 0
 R416: y[13,6] >= 0
 R417: y[14,6] >= 0
 R418: y[15,6] >= 0
 R419: y[16,6] >= 0
 R420: y[17,6] >= 0
 R421: y[18,6] >= 0
 R422: y[19,6] >= 0
 R423: y[20,6] >= 0
 R424: y[21,6] >= 0
 R425: y[22,6] >= 0
 R426: y[23,6] >= 0
 R427: y[24,6] >= 0
 R428: y[25,6] >= 0
 R429: y[26,6] >= 0
 R430: y[27,6] >= 0
 R431: y[28,6] >= 0
 R432: y[29,6] >= 0
 R433: y[30,6] >= 0
 R434: y[0,0] <= 15
 R435: y[1,0] <= 15
 R436: y[2,0] <= 15
 R437: y[3,0] <= 15
 R438: y[4,0] <= 15
 R439: y[5,0] <= 15
 R440: y[6,0] <= 15
 R441: y[7,0] <= 15
 R442: y[8,0] <= 15
 R443: y[9,0] <= 15
 R444: y[10,0] <= 15
 R445: y[11,0] <= 15
 R446: y[12,0] <= 15
 R447: y[13,0] <= 15
 R448: y[14,0] <= 15
 R449: y[15,0] <= 15
 R450: y[16,0] <= 15
 R451: y[17,0] <= 15
 R452: y[18,0] <= 15
 R453: y[19,0] <= 15
 R454: y[20,0] <= 15
 R455: y[21,0] <= 15
 R456: y[22,0] <= 15
 R457: y[23,0] <= 15
 R458: y[24,0] <= 15
 R459: y[25,0] <= 15
 R460: y[26,0] <= 15
 R461: y[27,0] <= 15
 R462: y[28,0] <= 15
 R463: y[29,0] <= 15
 R464: y[30,0] <= 15
 R465: y[0,1] <= 15
 R466: y[1,1] <= 15
 R467: y[2,1] <= 15
 R468: y[3,1] <= 15
 R469: y[4,1] <= 15
 R470: y[5,1] <= 15
 R471: y[6,1] <= 15
 R472: y[7,1] <= 15
 R473: y[8,1] <= 15
 R474: y[9,1] <= 15
 R475: y[10,1] <= 15
 R476: y[11,1] <= 15
 R477: y[12,1] <= 15
 R478: y[13,1] <= 15
 R479: y[14,1] <= 15
 R480: y[15,1] <= 15
 R481: y[16,1] <= 15
 R482: y[17,1] <= 15
 R483: y[18,1] <= 15
 R484: y[19,1] <= 15
 R485: y[20,1] <= 15
 R486: y[21,1] <= 15
 R487: y[22,1] <= 15
 R488: y[23,1] <= 15
 R489: y[24,1] <= 15
 R490: y[25,1] <= 15
 R491: y[26,1] <= 15
 R492: y[27,1] <= 15
 R493: y[28,1] <= 15
 R494: y[29,1] <= 15
 R495: y[30,1] <= 15
 R496: y[0,2] <= 15
 R497: y[1,2] <= 15
 R498: y[2,2] <= 15
 R499: y[3,2] <= 15
 R500: y[4,2] <= 15
 R501: y[5,2] <= 15
 R502: y[6,2] <= 15
 R503: y[7,2] <= 15
 R504: y[8,2] <= 15
 R505: y[9,2] <= 15
 R506: y[10,2] <= 15
 R507: y[11,2] <= 15
 R508: y[12,2] <= 15
 R509: y[13,2] <= 15
 R510: y[14,2] <= 15
 R511: y[15,2] <= 15
 R512: y[16,2] <= 15
 R513: y[17,2] <= 15
 R514: y[18,2] <= 15
 R515: y[19,2] <= 15
 R516: y[20,2] <= 15
 R517: y[21,2] <= 15
 R518: y[22,2] <= 15
 R519: y[23,2] <= 15
 R520: y[24,2] <= 15
 R521: y[25,2] <= 15
 R522: y[26,2] <= 15
 R523: y[27,2] <= 15
 R524: y[28,2] <= 15
 R525: y[29,2] <= 15
 R526: y[30,2] <= 15
 R527: y[0,3] <= 15
 R528: y[1,3] <= 15
 R529: y[2,3] <= 15
 R530: y[3,3] <= 15
 R531: y[4,3] <= 15
 R532: y[5,3] <= 15
 R533: y[6,3] <= 15
 R534: y[7,3] <= 15
 R535: y[8,3] <= 15
 R536: y[9,3] <= 15
 R537: y[10,3] <= 15
 R538: y[11,3] <= 15
 R539: y[12,3] <= 15
 R540: y[13,3] <= 15
 R541: y[14,3] <= 15
 R542: y[15,3] <= 15
 R543: y[16,3] <= 15
 R544: y[17,3] <= 15
 R545: y[18,3] <= 15
 R546: y[19,3] <= 15
 R547: y[20,3] <= 15
 R548: y[21,3] <= 15
 R549: y[22,3] <= 15
 R550: y[23,3] <= 15
 R551: y[24,3] <= 15
 R552: y[25,3] <= 15
 R553: y[26,3] <= 15
 R554: y[27,3] <= 15
 R555: y[28,3] <= 15
 R556: y[29,3] <= 15
 R557: y[30,3] <= 15
 R558: y[0,4] <= 15
 R559: y[1,4] <= 15
 R560: y[2,4] <= 15
 R561: y[3,4] <= 15
 R562: y[4,4] <= 15
 R563: y[5,4] <= 15
 R564: y[6,4] <= 15
 R565: y[7,4] <= 15
 R566: y[8,4] <= 15
 R567: y[9,4] <= 15
 R568: y[10,4] <= 15
 R569: y[11,4] <= 15
 R570: y[12,4] <= 15
 R571: y[13,4] <= 15
 R572: y[14,4] <= 15
 R573: y[15,4] <= 15
 R574: y[16,4] <= 15
 R575: y[17,4] <= 15
 R576: y[18,4] <= 15
 R577: y[19,4] <= 15
 R578: y[20,4] <= 15
 R579: y[21,4] <= 15
 R580: y[22,4] <= 15
 R581: y[23,4] <= 15
 R582: y[24,4] <= 15
 R583: y[25,4] <= 15
 R584: y[26,4] <= 15
 R585: y[27,4] <= 15
 R586: y[28,4] <= 15
 R587: y[29,4] <= 15
 R588: y[30,4] <= 15
 R589: y[0,5] <= 15
 R590: y[1,5] <= 15
 R591: y[2,5] <= 15
 R592: y[3,5] <= 15
 R593: y[4,5] <= 15
 R594: y[5,5] <= 15
 R595: y[6,5] <= 15
 R596: y[7,5] <= 15
 R597: y[8,5] <= 15
 R598: y[9,5] <= 15
 R599: y[10,5] <= 15
 R600: y[11,5] <= 15
 R601: y[12,5] <= 15
 R602: y[13,5] <= 15
 R603: y[14,5] <= 15
 R604: y[15,5] <= 15
 R605: y[16,5] <= 15
 R606: y[17,5] <= 15
 R607: y[18,5] <= 15
 R608: y[19,5] <= 15
 R609: y[20,5] <= 15
 R610: y[21,5] <= 15
 R611: y[22,5] <= 15
 R612: y[23,5] <= 15
 R613: y[24,5] <= 15
 R614: y[25,5] <= 15
 R615: y[26,5] <= 15
 R616: y[27,5] <= 15
 R617: y[28,5] <= 15
 R618: y[29,5] <= 15
 R619: y[30,5] <= 15
 R620: y[0,6] <= 15
 R621: y[1,6] <= 15
 R622: y[2,6] <= 15
 R623: y[3,6] <= 15
 R624: y[4,6] <= 15
 R625: y[5,6] <= 15
 R626: y[6,6] <= 15
 R627: y[7,6] <= 15
 R628: y[8,6] <= 15
 R629: y[9,6] <= 15
 R630: y[10,6] <= 15
 R631: y[11,6] <= 15
 R632: y[12,6] <= 15
 R633: y[13,6] <= 15
 R634: y[14,6] <= 15
 R635: y[15,6] <= 15
 R636: y[16,6] <= 15
 R637: y[17,6] <= 15
 R638: y[18,6] <= 15
 R639: y[19,6] <= 15
 R640: y[20,6] <= 15
 R641: y[21,6] <= 15
 R642: y[22,6] <= 15
 R643: y[23,6] <= 15
 R644: y[24,6] <= 15
 R645: y[25,6] <= 15
 R646: y[26,6] <= 15
 R647: y[27,6] <= 15
 R648: y[28,6] <= 15
 R649: y[29,6] <= 15
 R650: y[30,6] <= 15
 R651: x[0,0] + x[1,0] + x[2,0] + x[3,0] + x[4,0] + x[5,0] + x[6,0]
   + x[7,0] + x[8,0] + x[9,0] + x[10,0] + x[11,0] + x[12,0] + x[13,0]
   + x[14,0] + x[15,0] + x[16,0] + x[17,0] + x[18,0] + x[19,0] + x[20,0]
   + x[21,0] + x[22,0] + x[23,0] + x[24,0] + x[25,0] + x[26,0] + x[27,0]
   + x[28,0] + x[29,0] + x[30,0] <= 10
 R652: x[0,1] + x[1,1] + x[2,1] + x[3,1] + x[4,1] + x[5,1] + x[6,1]
   + x[7,1] + x[8,1] + x[9,1] + x[10,1] + x[11,1] + x[12,1] + x[13,1]
   + x[14,1] + x[15,1] + x[16,1] + x[17,1] + x[18,1] + x[19,1] + x[20,1]
   + x[21,1] + x[22,1] + x[23,1] + x[24,1] + x[25,1] + x[26,1] + x[27,1]
   + x[28,1] + x[29,1] + x[30,1] <= 10
 R653: x[0,2] + x[1,2] + x[2,2] + x[3,2] + x[4,2] + x[5,2] + x[6,2]
   + x[7,2] + x[8,2] + x[9,2] + x[10,2] + x[11,2] + x[12,2] + x[13,2]
   + x[14,2] + x[15,2] + x[16,2] + x[17,2] + x[18,2] + x[19,2] + x[20,2]
   + x[21,2] + x[22,2] + x[23,2] + x[24,2] + x[25,2] + x[26,2] + x[27,2]
   + x[28,2] + x[29,2] + x[30,2] <= 10
 R654: x[0,3] + x[1,3] + x[2,3] + x[3,3] + x[4,3] + x[5,3] + x[6,3]
   + x[7,3] + x[8,3] + x[9,3] + x[10,3] + x[11,3] + x[12,3] + x[13,3]
   + x[14,3] + x[15,3] + x[16,3] + x[17,3] + x[18,3] + x[19,3] + x[20,3]
   + x[21,3] + x[22,3] + x[23,3] + x[24,3] + x[25,3] + x[26,3] + x[27,3]
   + x[28,3] + x[29,3] + x[30,3] <= 10
 R655: x[0,4] + x[1,4] + x[2,4] + x[3,4] + x[4,4] + x[5,4] + x[6,4]
   + x[7,4] + x[8,4] + x[9,4] + x[10,4] + x[11,4] + x[12,4] + x[13,4]
   + x[14,4] + x[15,4] + x[16,4] + x[17,4] + x[18,4] + x[19,4] + x[20,4]
   + x[21,4] + x[22,4] + x[23,4] + x[24,4] + x[25,4] + x[26,4] + x[27,4]
   + x[28,4] + x[29,4] + x[30,4] <= 10
 R656: x[0,5] + x[1,5] + x[2,5] + x[3,5] + x[4,5] + x[5,5] + x[6,5]
   + x[7,5] + x[8,5] + x[9,5] + x[10,5] + x[11,5] + x[12,5] + x[13,5]
   + x[14,5] + x[15,5] + x[16,5] + x[17,5] + x[18,5] + x[19,5] + x[20,5]
   + x[21,5] + x[22,5] + x[23,5] + x[24,5] + x[25,5] + x[26,5] + x[27,5]
   + x[28,5] + x[29,5] + x[30,5] <= 10
 R657: x[0,6] + x[1,6] + x[2,6] + x[3,6] + x[4,6] + x[5,6] + x[6,6]
   + x[7,6] + x[8,6] + x[9,6] + x[10,6] + x[11,6] + x[12,6] + x[13,6]
   + x[14,6] + x[15,6] + x[16,6] + x[17,6] + x[18,6] + x[19,6] + x[20,6]
   + x[21,6] + x[22,6] + x[23,6] + x[24,6] + x[25,6] + x[26,6] + x[27,6]
   + x[28,6] + x[29,6] + x[30,6] <= 10
 R658: x[0,0] + x[0,1] + x[0,2] + x[0,3] + x[0,4] + x[0,5] + x[0,6] >= 0
 R659: x[1,0] + x[1,1] + x[1,2] + x[1,3] + x[1,4] + x[1,5] + x[1,6] >= 0
 R660: x[2,0] + x[2,1] + x[2,2] + x[2,3] + x[2,4] + x[2,5] + x[2,6] >= 0
 R661: x[3,0] + x[3,1] + x[3,2] + x[3,3] + x[3,4] + x[3,5] + x[3,6] >= 0
 R662: x[4,0] + x[4,1] + x[4,2] + x[4,3] + x[4,4] + x[4,5] + x[4,6] >= 0
 R663: x[5,0] + x[5,1] + x[5,2] + x[5,3] + x[5,4] + x[5,5] + x[5,6] >= 0
 R664: x[6,0] + x[6,1] + x[6,2] + x[6,3] + x[6,4] + x[6,5] + x[6,6] >= 0
 R665: x[7,0] + x[7,1] + x[7,2] + x[7,3] + x[7,4] + x[7,5] + x[7,6] >= 0
 R666: x[8,0] + x[8,1] + x[8,2] + x[8,3] + x[8,4] + x[8,5] + x[8,6] >= 0
 R667: x[9,0] + x[9,1] + x[9,2] + x[9,3] + x[9,4] + x[9,5] + x[9,6] >= 0
 R668: x[10,0] + x[10,1] + x[10,2] + x[10,3] + x[10,4] + x[10,5] + x[10,6]
   >= 0
 R669: x[11,0] + x[11,1] + x[11,2] + x[11,3] + x[11,4] + x[11,5] + x[11,6]
   >= 0
 R670: x[12,0] + x[12,1] + x[12,2] + x[12,3] + x[12,4] + x[12,5] + x[12,6]
   >= 0
 R671: x[13,0] + x[13,1] + x[13,2] + x[13,3] + x[13,4] + x[13,5] + x[13,6]
   >= 0
 R672: x[14,0] + x[14,1] + x[14,2] + x[14,3] + x[14,4] + x[14,5] + x[14,6]
   >= 0
 R673: x[15,0] + x[15,1] + x[15,2] + x[15,3] + x[15,4] + x[15,5] + x[15,6]
   >= 0
 R674: x[16,0] + x[16,1] + x[16,2] + x[16,3] + x[16,4] + x[16,5] + x[16,6]
   >= 0
 R675: x[17,0] + x[17,1] + x[17,2] + x[17,3] + x[17,4] + x[17,5] + x[17,6]
   >= 0
 R676: x[18,0] + x[18,1] + x[18,2] + x[18,3] + x[18,4] + x[18,5] + x[18,6]
   >= 0
 R677: x[19,0] + x[19,1] + x[19,2] + x[19,3] + x[19,4] + x[19,5] + x[19,6]
   >= 0
 R678: x[20,0] + x[20,1] + x[20,2] + x[20,3] + x[20,4] + x[20,5] + x[20,6]
   >= 0
 R679: x[21,0] + x[21,1] + x[21,2] + x[21,3] + x[21,4] + x[21,5] + x[21,6]
   >= 0
 R680: x[22,0] + x[22,1] + x[22,2] + x[22,3] + x[22,4] + x[22,5] + x[22,6]
   >= 0
 R681: x[23,0] + x[23,1] + x[23,2] + x[23,3] + x[23,4] + x[23,5] + x[23,6]
   >= 0
 R682: x[24,0] + x[24,1] + x[24,2] + x[24,3] + x[24,4] + x[24,5] + x[24,6]
   >= 0
 R683: x[25,0] + x[25,1] + x[25,2] + x[25,3] + x[25,4] + x[25,5] + x[25,6]
   >= 0
 R684: x[26,0] + x[26,1] + x[26,2] + x[26,3] + x[26,4] + x[26,5] + x[26,6]
   >= 0
 R685: x[27,0] + x[27,1] + x[27,2] + x[27,3] + x[27,4] + x[27,5] + x[27,6]
   >= 0
 R686: x[28,0] + x[28,1] + x[28,2] + x[28,3] + x[28,4] + x[28,5] + x[28,6]
   >= 0
 R687: x[29,0] + x[29,1] + x[29,2] + x[29,3] + x[29,4] + x[29,5] + x[29,6]
   >= 0
 R688: x[30,0] + x[30,1] + x[30,2] + x[30,3] + x[30,4] + x[30,5] + x[30,6]
   >= 0
 R689: x[0,0] + x[0,1] + x[0,2] + x[0,3] + x[0,4] + x[0,5] + x[0,6] <= 30
 R690: x[1,0] + x[1,1] + x[1,2] + x[1,3] + x[1,4] + x[1,5] + x[1,6] <= 30
 R691: x[2,0] + x[2,1] + x[2,2] + x[2,3] + x[2,4] + x[2,5] + x[2,6] <= 30
 R692: x[3,0] + x[3,1] + x[3,2] + x[3,3] + x[3,4] + x[3,5] + x[3,6] <= 30
 R693: x[4,0] + x[4,1] + x[4,2] + x[4,3] + x[4,4] + x[4,5] + x[4,6] <= 30
 R694: x[5,0] + x[5,1] + x[5,2] + x[5,3] + x[5,4] + x[5,5] + x[5,6] <= 30
 R695: x[6,0] + x[6,1] + x[6,2] + x[6,3] + x[6,4] + x[6,5] + x[6,6] <= 30
 R696: x[7,0] + x[7,1] + x[7,2] + x[7,3] + x[7,4] + x[7,5] + x[7,6] <= 30
 R697: x[8,0] + x[8,1] + x[8,2] + x[8,3] + x[8,4] + x[8,5] + x[8,6] <= 30
 R698: x[9,0] + x[9,1] + x[9,2] + x[9,3] + x[9,4] + x[9,5] + x[9,6] <= 30
 R699: x[10,0] + x[10,1] + x[10,2] + x[10,3] + x[10,4] + x[10,5] + x[10,6]
   <= 30
 R700: x[11,0] + x[11,1] + x[11,2] + x[11,3] + x[11,4] + x[11,5] + x[11,6]
   <= 30
 R701: x[12,0] + x[12,1] + x[12,2] + x[12,3] + x[12,4] + x[12,5] + x[12,6]
   <= 30
 R702: x[13,0] + x[13,1] + x[13,2] + x[13,3] + x[13,4] + x[13,5] + x[13,6]
   <= 30
 R703: x[14,0] + x[14,1] + x[14,2] + x[14,3] + x[14,4] + x[14,5] + x[14,6]
   <= 30
 R704: x[15,0] + x[15,1] + x[15,2] + x[15,3] + x[15,4] + x[15,5] + x[15,6]
   <= 30
 R705: x[16,0] + x[16,1] + x[16,2] + x[16,3] + x[16,4] + x[16,5] + x[16,6]
   <= 30
 R706: x[17,0] + x[17,1] + x[17,2] + x[17,3] + x[17,4] + x[17,5] + x[17,6]
   <= 30
 R707: x[18,0] + x[18,1] + x[18,2] + x[18,3] + x[18,4] + x[18,5] + x[18,6]
   <= 30
 R708: x[19,0] + x[19,1] + x[19,2] + x[19,3] + x[19,4] + x[19,5] + x[19,6]
   <= 30
 R709: x[20,0] + x[20,1] + x[20,2] + x[20,3] + x[20,4] + x[20,5] + x[20,6]
   <= 30
 R710: x[21,0] + x[21,1] + x[21,2] + x[21,3] + x[21,4] + x[21,5] + x[21,6]
   <= 30
 R711: x[22,0] + x[22,1] + x[22,2] + x[22,3] + x[22,4] + x[22,5] + x[22,6]
   <= 30
 R712: x[23,0] + x[23,1] + x[23,2] + x[23,3] + x[23,4] + x[23,5] + x[23,6]
   <= 30
 R713: x[24,0] + x[24,1] + x[24,2] + x[24,3] + x[24,4] + x[24,5] + x[24,6]
   <= 30
 R714: x[25,0] + x[25,1] + x[25,2] + x[25,3] + x[25,4] + x[25,5] + x[25,6]
   <= 30
 R715: x[26,0] + x[26,1] + x[26,2] + x[26,3] + x[26,4] + x[26,5] + x[26,6]
   <= 30
 R716: x[27,0] + x[27,1] + x[27,2] + x[27,3] + x[27,4] + x[27,5] + x[27,6]
   <= 30
 R717: x[28,0] + x[28,1] + x[28,2] + x[28,3] + x[28,4] + x[28,5] + x[28,6]
   <= 30
 R718: x[29,0] + x[29,1] + x[29,2] + x[29,3] + x[29,4] + x[29,5] + x[29,6]
   <= 30
 R719: x[30,0] + x[30,1] + x[30,2] + x[30,3] + x[30,4] + x[30,5] + x[30,6]
   <= 30
Bounds
Binaries
 x[0,0] x[0,1] x[0,2] x[0,3] x[0,4] x[0,5] x[0,6] x[1,0] x[1,1] x[1,2]
 x[1,3] x[1,4] x[1,5] x[1,6] x[2,0] x[2,1] x[2,2] x[2,3] x[2,4] x[2,5]
 x[2,6] x[3,0] x[3,1] x[3,2] x[3,3] x[3,4] x[3,5] x[3,6] x[4,0] x[4,1]
 x[4,2] x[4,3] x[4,4] x[4,5] x[4,6] x[5,0] x[5,1] x[5,2] x[5,3] x[5,4]
 x[5,5] x[5,6] x[6,0] x[6,1] x[6,2] x[6,3] x[6,4] x[6,5] x[6,6] x[7,0]
 x[7,1] x[7,2] x[7,3] x[7,4] x[7,5] x[7,6] x[8,0] x[8,1] x[8,2] x[8,3]
 x[8,4] x[8,5] x[8,6] x[9,0] x[9,1] x[9,2] x[9,3] x[9,4] x[9,5] x[9,6]
 x[10,0] x[10,1] x[10,2] x[10,3] x[10,4] x[10,5] x[10,6] x[11,0] x[11,1]
 x[11,2] x[11,3] x[11,4] x[11,5] x[11,6] x[12,0] x[12,1] x[12,2] x[12,3]
 x[12,4] x[12,5] x[12,6] x[13,0] x[13,1] x[13,2] x[13,3] x[13,4] x[13,5]
 x[13,6] x[14,0] x[14,1] x[14,2] x[14,3] x[14,4] x[14,5] x[14,6] x[15,0]
 x[15,1] x[15,2] x[15,3] x[15,4] x[15,5] x[15,6] x[16,0] x[16,1] x[16,2]
 x[16,3] x[16,4] x[16,5] x[16,6] x[17,0] x[17,1] x[17,2] x[17,3] x[17,4]
 x[17,5] x[17,6] x[18,0] x[18,1] x[18,2] x[18,3] x[18,4] x[18,5] x[18,6]
 x[19,0] x[19,1] x[19,2] x[19,3] x[19,4] x[19,5] x[19,6] x[20,0] x[20,1]
 x[20,2] x[20,3] x[20,4] x[20,5] x[20,6] x[21,0] x[21,1] x[21,2] x[21,3]
 x[21,4] x[21,5] x[21,6] x[22,0] x[22,1] x[22,2] x[22,3] x[22,4] x[22,5]
 x[22,6] x[23,0] x[23,1] x[23,2] x[23,3] x[23,4] x[23,5] x[23,6] x[24,0]
 x[24,1] x[24,2] x[24,3] x[24,4] x[24,5] x[24,6] x[25,0] x[25,1] x[25,2]
 x[25,3] x[25,4] x[25,5] x[25,6] x[26,0] x[26,1] x[26,2] x[26,3] x[26,4]
 x[26,5] x[26,6] x[27,0] x[27,1] x[27,2] x[27,3] x[27,4] x[27,5] x[27,6]
 x[28,0] x[28,1] x[28,2] x[28,3] x[28,4] x[28,5] x[28,6] x[29,0] x[29,1]
 x[29,2] x[29,3] x[29,4] x[29,5] x[29,6] x[30,0] x[30,1] x[30,2] x[30,3]
 x[30,4] x[30,5] x[30,6]
Generals
 y[0,0] y[0,1] y[0,2] y[0,3] y[0,4] y[0,5] y[0,6] y[1,0] y[1,1] y[1,2]
 y[1,3] y[1,4] y[1,5] y[1,6] y[2,0] y[2,1] y[2,2] y[2,3] y[2,4] y[2,5]
 y[2,6] y[3,0] y[3,1] y[3,2] y[3,3] y[3,4] y[3,5] y[3,6] y[4,0] y[4,1]
 y[4,2] y[4,3] y[4,4] y[4,5] y[4,6] y[5,0] y[5,1] y[5,2] y[5,3] y[5,4]
 y[5,5] y[5,6] y[6,0] y[6,1] y[6,2] y[6,3] y[6,4] y[6,5] y[6,6] y[7,0]
 y[7,1] y[7,2] y[7,3] y[7,4] y[7,5] y[7,6] y[8,0] y[8,1] y[8,2] y[8,3]
 y[8,4] y[8,5] y[8,6] y[9,0] y[9,1] y[9,2] y[9,3] y[9,4] y[9,5] y[9,6]
 y[10,0] y[10,1] y[10,2] y[10,3] y[10,4] y[10,5] y[10,6] y[11,0] y[11,1]
 y[11,2] y[11,3] y[11,4] y[11,5] y[11,6] y[12,0] y[12,1] y[12,2] y[12,3]
 y[12,4] y[12,5] y[12,6] y[13,0] y[13,1] y[13,2] y[13,3] y[13,4] y[13,5]
 y[13,6] y[14,0] y[14,1] y[14,2] y[14,3] y[14,4] y[14,5] y[14,6] y[15,0]
 y[15,1] y[15,2] y[15,3] y[15,4] y[15,5] y[15,6] y[16,0] y[16,1] y[16,2]
 y[16,3] y[16,4] y[16,5] y[16,6] y[17,0] y[17,1] y[17,2] y[17,3] y[17,4]
 y[17,5] y[17,6] y[18,0] y[18,1] y[18,2] y[18,3] y[18,4] y[18,5] y[18,6]
 y[19,0] y[19,1] y[19,2] y[19,3] y[19,4] y[19,5] y[19,6] y[20,0] y[20,1]
 y[20,2] y[20,3] y[20,4] y[20,5] y[20,6] y[21,0] y[21,1] y[21,2] y[21,3]
 y[21,4] y[21,5] y[21,6] y[22,0] y[22,1] y[22,2] y[22,3] y[22,4] y[22,5]
 y[22,6] y[23,0] y[23,1] y[23,2] y[23,3] y[23,4] y[23,5] y[23,6] y[24,0]
 y[24,1] y[24,2] y[24,3] y[24,4] y[24,5] y[24,6] y[25,0] y[25,1] y[25,2]
 y[25,3] y[25,4] y[25,5] y[25,6] y[26,0] y[26,1] y[26,2] y[26,3] y[26,4]
 y[26,5] y[26,6] y[27,0] y[27,1] y[27,2] y[27,3] y[27,4] y[27,5] y[27,6]
 y[28,0] y[28,1] y[28,2] y[28,3] y[28,4] y[28,5] y[28,6] y[29,0] y[29,1]
 y[29,2] y[29,3] y[29,4] y[29,5] y[29,6] y[30,0] y[30,1] y[30,2] y[30,3]
 y[30,4] y[30,5] y[30,6]
End
